p cnf 386 460
19 6 -14 21 22 0
19 6 -14 21 -22 0
19 6 -14 -21 23 0
19 6 -14 -21 -23 0
8 17 -5 24 25 0
8 17 -5 24 -25 0
8 17 -5 -24 26 0
8 17 -5 -24 -26 0
7 -13 -12 27 28 0
7 -13 -12 27 -28 0
7 -13 -12 -27 29 0
7 -13 -12 -27 -29 0
11 -7 -10 30 31 0
11 -7 -10 30 -31 0
11 -7 -10 -30 32 0
11 -7 -10 -30 -32 0
1 14 -17 33 34 0
1 14 -17 33 -34 0
1 14 -17 -33 35 0
1 14 -17 -33 -35 0
-13 3 9 36 37 0
-13 3 9 36 -37 0
-13 3 9 -36 38 0
-13 3 9 -36 -38 0
3 1 -7 39 40 0
3 1 -7 39 -40 0
3 1 -7 -39 41 0
3 1 -7 -39 -41 0
11 15 10 42 43 0
11 15 10 42 -43 0
11 15 10 -42 44 0
11 15 10 -42 -44 0
-3 -12 15 45 46 0
-3 -12 15 45 -46 0
-3 -12 15 -45 47 0
-3 -12 15 -45 -47 0
10 15 1 48 49 0
10 15 1 48 -49 0
10 15 1 -48 50 0
10 15 1 -48 -50 0
2 15 -9 51 52 0
2 15 -9 51 -52 0
2 15 -9 -51 53 0
2 15 -9 -51 -53 0
-12 -13 -18 54 55 0
-12 -13 -18 54 -55 0
-12 -13 -18 -54 56 0
-12 -13 -18 -54 -56 0
-8 -15 -4 57 58 0
-8 -15 -4 57 -58 0
-8 -15 -4 -57 59 0
-8 -15 -4 -57 -59 0
13 7 -8 60 61 0
13 7 -8 60 -61 0
13 7 -8 -60 62 0
13 7 -8 -60 -62 0
-15 16 2 63 64 0
-15 16 2 63 -64 0
-15 16 2 -63 65 0
-15 16 2 -63 -65 0
11 10 13 66 67 0
11 10 13 66 -67 0
11 10 13 -66 68 0
11 10 13 -66 -68 0
13 -14 -2 69 70 0
13 -14 -2 69 -70 0
13 -14 -2 -69 71 0
13 -14 -2 -69 -71 0
18 8 -20 72 73 0
18 8 -20 72 -73 0
18 8 -20 -72 74 0
18 8 -20 -72 -74 0
1 -10 7 75 76 0
1 -10 7 75 -76 0
1 -10 7 -75 77 0
1 -10 7 -75 -77 0
5 -11 3 78 79 0
5 -11 3 78 -79 0
5 -11 3 -78 80 0
5 -11 3 -78 -80 0
-13 2 18 81 82 0
-13 2 18 81 -82 0
-13 2 18 -81 83 0
-13 2 18 -81 -83 0
-6 -17 -4 84 85 0
-6 -17 -4 84 -85 0
-6 -17 -4 -84 86 0
-6 -17 -4 -84 -86 0
13 19 -20 87 88 0
13 19 -20 87 -88 0
13 19 -20 -87 89 0
13 19 -20 -87 -89 0
2 11 13 90 91 0
2 11 13 90 -91 0
2 11 13 -90 92 0
2 11 13 -90 -92 0
-9 5 18 93 94 0
-9 5 18 93 -94 0
-9 5 18 -93 95 0
-9 5 18 -93 -95 0
-15 -18 -12 96 97 0
-15 -18 -12 96 -97 0
-15 -18 -12 -96 98 0
-15 -18 -12 -96 -98 0
-14 -16 12 99 100 0
-14 -16 12 99 -100 0
-14 -16 12 -99 101 0
-14 -16 12 -99 -101 0
-17 3 1 102 103 0
-17 3 1 102 -103 0
-17 3 1 -102 104 0
-17 3 1 -102 -104 0
-8 -5 -12 105 106 0
-8 -5 -12 105 -106 0
-8 -5 -12 -105 107 0
-8 -5 -12 -105 -107 0
8 -20 17 108 109 0
8 -20 17 108 -109 0
8 -20 17 -108 110 0
8 -20 17 -108 -110 0
15 -5 -1 111 112 0
15 -5 -1 111 -112 0
15 -5 -1 -111 113 0
15 -5 -1 -111 -113 0
-1 12 -7 114 115 0
-1 12 -7 114 -115 0
-1 12 -7 -114 116 0
-1 12 -7 -114 -116 0
-15 5 20 117 118 0
-15 5 20 117 -118 0
-15 5 20 -117 119 0
-15 5 20 -117 -119 0
17 9 -7 120 121 0
17 9 -7 120 -121 0
17 9 -7 -120 122 0
17 9 -7 -120 -122 0
-1 16 19 123 124 0
-1 16 19 123 -124 0
-1 16 19 -123 125 0
-1 16 19 -123 -125 0
-20 16 -14 126 127 0
-20 16 -14 126 -127 0
-20 16 -14 -126 128 0
-20 16 -14 -126 -128 0
-11 -4 -2 129 130 0
-11 -4 -2 129 -130 0
-11 -4 -2 -129 131 0
-11 -4 -2 -129 -131 0
-14 10 -15 132 133 0
-14 10 -15 132 -133 0
-14 10 -15 -132 134 0
-14 10 -15 -132 -134 0
15 1 -5 135 136 0
15 1 -5 135 -136 0
15 1 -5 -135 137 0
15 1 -5 -135 -137 0
20 9 19 138 139 0
20 9 19 138 -139 0
20 9 19 -138 140 0
20 9 19 -138 -140 0
5 -20 7 141 142 0
5 -20 7 141 -142 0
5 -20 7 -141 143 0
5 -20 7 -141 -143 0
12 -6 -2 144 145 0
12 -6 -2 144 -145 0
12 -6 -2 -144 146 0
12 -6 -2 -144 -146 0
-18 -20 -13 147 148 0
-18 -20 -13 147 -148 0
-18 -20 -13 -147 149 0
-18 -20 -13 -147 -149 0
-14 -9 17 150 151 0
-14 -9 17 150 -151 0
-14 -9 17 -150 152 0
-14 -9 17 -150 -152 0
-6 -19 -8 153 154 0
-6 -19 -8 153 -154 0
-6 -19 -8 -153 155 0
-6 -19 -8 -153 -155 0
18 -8 -7 156 157 0
18 -8 -7 156 -157 0
18 -8 -7 -156 158 0
18 -8 -7 -156 -158 0
13 -2 -3 159 160 0
13 -2 -3 159 -160 0
13 -2 -3 -159 161 0
13 -2 -3 -159 -161 0
8 10 12 162 163 0
8 10 12 162 -163 0
8 10 12 -162 164 0
8 10 12 -162 -164 0
-16 -15 -20 165 166 0
-16 -15 -20 165 -166 0
-16 -15 -20 -165 167 0
-16 -15 -20 -165 -167 0
15 18 10 168 169 0
15 18 10 168 -169 0
15 18 10 -168 170 0
15 18 10 -168 -170 0
-14 -6 -15 171 172 0
-14 -6 -15 171 -172 0
-14 -6 -15 -171 173 0
-14 -6 -15 -171 -173 0
-17 -6 -16 174 175 0
-17 -6 -16 174 -175 0
-17 -6 -16 -174 176 0
-17 -6 -16 -174 -176 0
19 1 3 177 178 0
19 1 3 177 -178 0
19 1 3 -177 179 0
19 1 3 -177 -179 0
-16 -4 -3 180 181 0
-16 -4 -3 180 -181 0
-16 -4 -3 -180 182 0
-16 -4 -3 -180 -182 0
-6 -11 15 183 184 0
-6 -11 15 183 -184 0
-6 -11 15 -183 185 0
-6 -11 15 -183 -185 0
6 -4 -17 186 187 0
6 -4 -17 186 -187 0
6 -4 -17 -186 188 0
6 -4 -17 -186 -188 0
-2 -6 -20 189 190 0
-2 -6 -20 189 -190 0
-2 -6 -20 -189 191 0
-2 -6 -20 -189 -191 0
17 1 9 192 193 0
17 1 9 192 -193 0
17 1 9 -192 194 0
17 1 9 -192 -194 0
8 11 19 195 196 0
8 11 19 195 -196 0
8 11 19 -195 197 0
8 11 19 -195 -197 0
14 -15 19 198 199 0
14 -15 19 198 -199 0
14 -15 19 -198 200 0
14 -15 19 -198 -200 0
-12 -16 17 201 202 0
-12 -16 17 201 -202 0
-12 -16 17 -201 203 0
-12 -16 17 -201 -203 0
-17 14 12 204 205 0
-17 14 12 204 -205 0
-17 14 12 -204 206 0
-17 14 12 -204 -206 0
15 5 -11 207 208 0
15 5 -11 207 -208 0
15 5 -11 -207 209 0
15 5 -11 -207 -209 0
7 -17 -9 210 211 0
7 -17 -9 210 -211 0
7 -17 -9 -210 212 0
7 -17 -9 -210 -212 0
9 -14 -7 213 214 0
9 -14 -7 213 -214 0
9 -14 -7 -213 215 0
9 -14 -7 -213 -215 0
7 11 15 216 217 0
7 11 15 216 -217 0
7 11 15 -216 218 0
7 11 15 -216 -218 0
10 -3 20 219 220 0
10 -3 20 219 -220 0
10 -3 20 -219 221 0
10 -3 20 -219 -221 0
-12 14 -2 222 223 0
-12 14 -2 222 -223 0
-12 14 -2 -222 224 0
-12 14 -2 -222 -224 0
3 -20 9 225 226 0
3 -20 9 225 -226 0
3 -20 9 -225 227 0
3 -20 9 -225 -227 0
16 -13 7 228 229 0
16 -13 7 228 -229 0
16 -13 7 -228 230 0
16 -13 7 -228 -230 0
-10 3 20 231 232 0
-10 3 20 231 -232 0
-10 3 20 -231 233 0
-10 3 20 -231 -233 0
3 11 -6 234 235 0
3 11 -6 234 -235 0
3 11 -6 -234 236 0
3 11 -6 -234 -236 0
-16 -2 -9 237 238 0
-16 -2 -9 237 -238 0
-16 -2 -9 -237 239 0
-16 -2 -9 -237 -239 0
18 1 11 240 241 0
18 1 11 240 -241 0
18 1 11 -240 242 0
18 1 11 -240 -242 0
-7 4 -2 243 244 0
-7 4 -2 243 -244 0
-7 4 -2 -243 245 0
-7 4 -2 -243 -245 0
-18 16 17 246 247 0
-18 16 17 246 -247 0
-18 16 17 -246 248 0
-18 16 17 -246 -248 0
3 -10 15 249 250 0
3 -10 15 249 -250 0
3 -10 15 -249 251 0
3 -10 15 -249 -251 0
-3 10 5 252 253 0
-3 10 5 252 -253 0
-3 10 5 -252 254 0
-3 10 5 -252 -254 0
-2 -5 3 255 256 0
-2 -5 3 255 -256 0
-2 -5 3 -255 257 0
-2 -5 3 -255 -257 0
2 17 -14 258 259 0
2 17 -14 258 -259 0
2 17 -14 -258 260 0
2 17 -14 -258 -260 0
-17 7 15 261 262 0
-17 7 15 261 -262 0
-17 7 15 -261 263 0
-17 7 15 -261 -263 0
-18 -5 12 264 265 0
-18 -5 12 264 -265 0
-18 -5 12 -264 266 0
-18 -5 12 -264 -266 0
15 16 20 267 268 0
15 16 20 267 -268 0
15 16 20 -267 269 0
15 16 20 -267 -269 0
-8 -4 20 270 271 0
-8 -4 20 270 -271 0
-8 -4 20 -270 272 0
-8 -4 20 -270 -272 0
15 7 4 273 274 0
15 7 4 273 -274 0
15 7 4 -273 275 0
15 7 4 -273 -275 0
-10 20 -14 276 277 0
-10 20 -14 276 -277 0
-10 20 -14 -276 278 0
-10 20 -14 -276 -278 0
-18 -14 -3 279 280 0
-18 -14 -3 279 -280 0
-18 -14 -3 -279 281 0
-18 -14 -3 -279 -281 0
-6 -15 -17 282 283 0
-6 -15 -17 282 -283 0
-6 -15 -17 -282 284 0
-6 -15 -17 -282 -284 0
-20 5 -3 285 286 0
-20 5 -3 285 -286 0
-20 5 -3 -285 287 0
-20 5 -3 -285 -287 0
19 18 3 288 289 0
19 18 3 288 -289 0
19 18 3 -288 290 0
19 18 3 -288 -290 0
-2 11 -9 291 292 0
-2 11 -9 291 -292 0
-2 11 -9 -291 293 0
-2 11 -9 -291 -293 0
294 295 297 301 309 0
294 295 297 301 -309 0
294 295 297 -301 310 0
294 295 297 -301 -310 0
294 295 -297 302 311 0
294 295 -297 302 -311 0
294 295 -297 -302 312 0
294 295 -297 -302 -312 0
294 -295 298 303 313 0
294 -295 298 303 -313 0
294 -295 298 -303 314 0
294 -295 298 -303 -314 0
294 -295 -298 304 315 0
294 -295 -298 304 -315 0
294 -295 -298 -304 316 0
294 -295 -298 -304 -316 0
-294 296 299 305 317 0
-294 296 299 305 -317 0
-294 296 299 -305 318 0
-294 296 299 -305 -318 0
-294 296 -299 306 319 0
-294 296 -299 306 -319 0
-294 296 -299 -306 320 0
-294 296 -299 -306 -320 0
-294 -296 300 307 321 0
-294 -296 300 307 -321 0
-294 -296 300 -307 322 0
-294 -296 300 -307 -322 0
-294 -296 -300 308 323 0
-294 -296 -300 308 -323 0
-294 -296 -300 -308 324 0
-294 -296 -300 -308 -324 0
325 326 328 332 340 0
325 326 328 332 -340 0
325 326 328 -332 341 0
325 326 328 -332 -341 0
325 326 -328 333 342 0
325 326 -328 333 -342 0
325 326 -328 -333 343 0
325 326 -328 -333 -343 0
325 -326 329 334 344 0
325 -326 329 334 -344 0
325 -326 329 -334 345 0
325 -326 329 -334 -345 0
325 -326 -329 335 346 0
325 -326 -329 335 -346 0
325 -326 -329 -335 347 0
325 -326 -329 -335 -347 0
-325 327 330 336 348 0
-325 327 330 336 -348 0
-325 327 330 -336 349 0
-325 327 330 -336 -349 0
-325 327 -330 337 350 0
-325 327 -330 337 -350 0
-325 327 -330 -337 351 0
-325 327 -330 -337 -351 0
-325 -327 331 338 352 0
-325 -327 331 338 -352 0
-325 -327 331 -338 353 0
-325 -327 331 -338 -353 0
-325 -327 -331 339 354 0
-325 -327 -331 339 -354 0
-325 -327 -331 -339 355 0
-325 -327 -331 -339 -355 0
356 357 359 363 371 0
356 357 359 363 -371 0
356 357 359 -363 372 0
356 357 359 -363 -372 0
356 357 -359 364 373 0
356 357 -359 364 -373 0
356 357 -359 -364 374 0
356 357 -359 -364 -374 0
356 -357 360 365 375 0
356 -357 360 365 -375 0
356 -357 360 -365 376 0
356 -357 360 -365 -376 0
356 -357 -360 366 377 0
356 -357 -360 366 -377 0
356 -357 -360 -366 378 0
356 -357 -360 -366 -378 0
-356 358 361 367 379 0
-356 358 361 367 -379 0
-356 358 361 -367 380 0
-356 358 361 -367 -380 0
-356 358 -361 368 381 0
-356 358 -361 368 -381 0
-356 358 -361 -368 382 0
-356 358 -361 -368 -382 0
-356 -358 362 369 383 0
-356 -358 362 369 -383 0
-356 -358 362 -369 384 0
-356 -358 362 -369 -384 0
-356 -358 -362 370 385 0
-356 -358 -362 370 -385 0
-356 -358 -362 -370 386 0
-356 -358 -362 -370 -386 0

